25 500
  0     35.0     35.0       0.0     1000.0      0.0       0.0       0.0  
  1     41.0     49.0      658.0     898.0     10.0       4.0      10.0  
  2     35.0     17.0      93.0      333.0     10.0      12.0       7.0  
  3     55.0     45.0      436.0     676.0     10.0      19.0      13.0  
  4     55.0     20.0      620.0     860.0     10.0      34.0      19.0  
  5     15.0     30.0      20.0      260.0     10.0      23.0      26.0  
  6     25.0     30.0      345.0     585.0     10.0       4.0       3.0  
  7     20.0     50.0      251.0     491.0     10.0       7.0       5.0  
  8     10.0     43.0      323.0     563.0     10.0       9.0       9.0  
  9     55.0     60.0      329.0     569.0     10.0       1.0      16.0  
 10     30.0     60.0      485.0     725.0     10.0       1.0      16.0  
 11     20.0     65.0      146.0     386.0     10.0       9.0      12.0  
 12     50.0     35.0      167.0     407.0     10.0      32.0      19.0  
 13     30.0     25.0      639.0     879.0     10.0      41.0      23.0  
 14     15.0     10.0      32.0      272.0     10.0       5.0      20.0  
 15     30.0      5.0      118.0     358.0     10.0       8.0       8.0  
 16     10.0     20.0      203.0     443.0     10.0      33.0      19.0  
 17      5.0     30.0      682.0     922.0     10.0       1.0       2.0  
 18     20.0     40.0      286.0     526.0     10.0      12.0      12.0  
 19     15.0     60.0      204.0     444.0     10.0      22.0      17.0  
 20     45.0     65.0      504.0     744.0     10.0      11.0       9.0  
 21     45.0     20.0      153.0     393.0     10.0      15.0      11.0  
 22     45.0     10.0      332.0     572.0     10.0      13.0      18.0  
 23     55.0      5.0      146.0     386.0     10.0      50.0      29.0  
 24     65.0     35.0      656.0     896.0     10.0       4.0       3.0  
 25     65.0     20.0      716.0     956.0     10.0       3.0       6.0  
 26     45.0     30.0      508.0     748.0     10.0      19.0      17.0  
 27     35.0     40.0      60.0      300.0     10.0       7.0      16.0  
 28     41.0     37.0      65.0      305.0     10.0       4.0      16.0  
 29     64.0     42.0      132.0     372.0     10.0      13.0       9.0  
 30     40.0     60.0      187.0     427.0     10.0      28.0      21.0  
 31     31.0     52.0      94.0      334.0     10.0      44.0      27.0  
 32     35.0     69.0      599.0     839.0     10.0      38.0      23.0  
 33     53.0     52.0      24.0      264.0     10.0      18.0      11.0  
 34     65.0     55.0      452.0     692.0     10.0       2.0      14.0  
 35     63.0     65.0      630.0     870.0     10.0       7.0       8.0  
 36      2.0     60.0      41.0      281.0     10.0       6.0       5.0  
 37     20.0     20.0      530.0     770.0     10.0       8.0       8.0  
 38      5.0      5.0      234.0     474.0     10.0      11.0      16.0  
 39     60.0     12.0      33.0      273.0     10.0      31.0      31.0  
 40     40.0     25.0      279.0     519.0     10.0      12.0       9.0  
 41     42.0      7.0      334.0     574.0     10.0       6.0       5.0  
 42     24.0     12.0      25.0      265.0     10.0       9.0       5.0  
 43     23.0      3.0      543.0     783.0     10.0      11.0       7.0  
 44     11.0     14.0      167.0     407.0     10.0       8.0      18.0  
 45      6.0     38.0      29.0      269.0     10.0       4.0      16.0  
 46      2.0     48.0      452.0     692.0     10.0       1.0       1.0  
 47      8.0     56.0      48.0      288.0     10.0      41.0      27.0  
 48     13.0     52.0      720.0     960.0     10.0      12.0      36.0  
 49      6.0     68.0      401.0     641.0     10.0       9.0      30.0  
 50     47.0     47.0      475.0     715.0     10.0      21.0      13.0  
 51     49.0     58.0      281.0     521.0     10.0       4.0      10.0  
 52     27.0     43.0      117.0     357.0     10.0      17.0       9.0  
 53     37.0     31.0      332.0     572.0     10.0       9.0      14.0  
 54     57.0     29.0      568.0     808.0     10.0       6.0      18.0  
 55     63.0     23.0      560.0     800.0     10.0       2.0       2.0  
 56     53.0     12.0      519.0     759.0     10.0       2.0       6.0  
 57     32.0     12.0      356.0     596.0     10.0      14.0       7.0  
 58     36.0     26.0      740.0     980.0     10.0       1.0      18.0  
 59     21.0     24.0      17.0      257.0     10.0      14.0      28.0  
 60     17.0     34.0      672.0     912.0     10.0       4.0       3.0  
 61     12.0     24.0      214.0     454.0     10.0      24.0      13.0  
 62     24.0     58.0      113.0     353.0     10.0      34.0      19.0  
 63     27.0     69.0      34.0      274.0     10.0       1.0      10.0  
 64     15.0     77.0      154.0     394.0     10.0       9.0       9.0  
 65     62.0     77.0      49.0      289.0     10.0       3.0      20.0  
 66     49.0     73.0      523.0     763.0     10.0      26.0      25.0  
 67     67.0      5.0      228.0     468.0     10.0      33.0      25.0  
 68     56.0     39.0      575.0     815.0     10.0      22.0      36.0  
 69     37.0     47.0      108.0     348.0     10.0       6.0       6.0  
 70     37.0     56.0      728.0     968.0     10.0       6.0       5.0  
 71     57.0     68.0      198.0     438.0     10.0      30.0      15.0  
 72     47.0     16.0      22.0      262.0     10.0      46.0      25.0  
 73     44.0     17.0      234.0     474.0     10.0      14.0       9.0  
 74     46.0     13.0      622.0     862.0     10.0       1.0       8.0  
 75     49.0     11.0      171.0     411.0     10.0       6.0      18.0  
 76     49.0     42.0      212.0     452.0     10.0      25.0      13.0  
 77     53.0     43.0      730.0     970.0     10.0      11.0      14.0  
 78     61.0     52.0      322.0     562.0     10.0       4.0       3.0  
 79     57.0     48.0      307.0     547.0     10.0      23.0      23.0  
 80     56.0     37.0      728.0     968.0     10.0       3.0       6.0  
 81     55.0     54.0      314.0     554.0     10.0      19.0      26.0  
 82     15.0     47.0      106.0     346.0     10.0      13.0      16.0  
 83     14.0     37.0      53.0      293.0     10.0      21.0      11.0  
 84     11.0     31.0      354.0     594.0     10.0      11.0       7.0  
 85     16.0     22.0      299.0     539.0     10.0      42.0      41.0  
 86      4.0     18.0      307.0     547.0     10.0      54.0      35.0  
 87     28.0     18.0      314.0     554.0     10.0      13.0      26.0  
 88     26.0     52.0      214.0     454.0     10.0      10.0       9.0  
 89     26.0     35.0      718.0     958.0     10.0      19.0      15.0  
 90     31.0     67.0      320.0     560.0     10.0       5.0       3.0  
 91     15.0     19.0      683.0     923.0     10.0       1.0       1.0  
 92     22.0     22.0      18.0      258.0     10.0       2.0       2.0  
 93     18.0     24.0      729.0     969.0     10.0      15.0      22.0  
 94     26.0     27.0      350.0     590.0     10.0      54.0      27.0  
 95     25.0     24.0      42.0      282.0     10.0      19.0      20.0  
 96     22.0     27.0      529.0     769.0     10.0      19.0      11.0  
 97     25.0     21.0      523.0     763.0     10.0       8.0      12.0  
 98     19.0     21.0      125.0     365.0     10.0       7.0      10.0  
 99     20.0     26.0      263.0     503.0     10.0      14.0       9.0  
 100    18.0     18.0      725.0     965.0     10.0      32.0      17.0  
